% File represents an instance of a Composite Structure problem to be solved by a CP framework
% Created on 2025-03-26 10:41:16.215
T = 58;
n = 9;
m = 12;
edges = [(1, 2),
(4, 5),
(7, 8),
(2, 3),
(5, 6),
(8, 9),
(4, 1),
(7, 4),
(5, 2),
(8, 5),
(6, 3),
(9, 6)];
counts = [|6, 14, 6, 22,
|6, 14, 6, 16,
|6, 12, 6, 14,
|6, 14, 6, 26,
|6, 14, 6, 22,
|6, 12, 6, 20,
|8, 16, 8, 26,
|8, 14, 8, 22,
|6, 14, 6, 20|];
